
  17    4
  10   10   10   10

   0   0   0   0   0   4 2 3 5 7 
   5  10  10  10  10   3 10 9 4 
   3  10  10  10  10   2 10 4 
   8  10  10  10  10   3 16 8 6 
   2  10  10  10  10   3 15 13 11 
  10  10  10  10  10   4 15 14 13 12 
  10  10  10  10  10   1 9 
  10  10  10  10  10   3 14 13 12 
   8  10  10  10  10   3 15 13 12 
   8  10  10  10  10   3 14 13 12 
   8  10  10  10  10   3 16 14 12 
   5  10  10  10  10   1 17
   6  10  10  10  10   1 17
   2  10  10  10  10   1 17
   9  10  10  10  10   1 17
   3  10  10  10  10   1 17
   0   0   0   0   0   0 
